Version identifier: 22.1.0.0 | 2022-03-09 | 1a383f8ce
CPXPARAM_Threads                                 1
CPXPARAM_MIP_Strategy_VariableSelect             3
CPXPARAM_TimeLimit                               600
Tried aggregator 1 time.
MIP Presolve eliminated 7 rows and 0 columns.
Reduced MIP has 2418 rows, 10001 columns, and 110746 nonzeros.
Reduced MIP has 10000 binaries, 0 generals, 0 SOSs, and 0 indicators.
Presolve time = 0.04 sec. (35.82 ticks)
Found incumbent of value 59.000000 after 0.13 sec. (104.78 ticks)
Probing time = 0.01 sec. (9.77 ticks)
Tried aggregator 1 time.
Detecting symmetries...
Reduced MIP has 2418 rows, 10001 columns, and 110746 nonzeros.
Reduced MIP has 10000 binaries, 0 generals, 0 SOSs, and 0 indicators.
Presolve time = 0.05 sec. (44.06 ticks)
Probing time = 0.01 sec. (9.77 ticks)
Clique table members: 403.
MIP emphasis: balance optimality and feasibility.
MIP search method: dynamic search.
Parallel mode: none, using 1 thread.
Root relaxation solution time = 2.29 sec. (2515.95 ticks)

        Nodes                                         Cuts/
   Node  Left     Objective  IInf  Best Integer    Best Bound    ItCnt     Gap

*     0+    0                           59.0000        0.0000           100.00%
      0     0        0.0000  1716       59.0000        0.0000     6328  100.00%
*     0+    0                            3.0000        0.0000           100.00%
*     0+    0                            1.0000        0.0000           100.00%
Detecting symmetries...
      0     2        0.0000    84        1.0000        0.0000     6328  100.00%
Elapsed time = 21.62 sec. (22288.23 ticks, tree = 0.01 MB, solutions = 3)
      1     3        0.0000    58        1.0000        0.0000    17565  100.00%
      2     4        0.0000   222        1.0000        0.0000    22935  100.00%
      3     5        0.0000    54        1.0000        0.0000    24799  100.00%
      4     6        0.0000   264        1.0000        0.0000    30256  100.00%
      5     7        0.0000    60        1.0000        0.0000    30341  100.00%
      6     8        0.0000   183        1.0000        0.0000    42487  100.00%
      7     9        0.0000    56        1.0000        0.0000    46472  100.00%
      8    10        0.0000   241        1.0000        0.0000    54437  100.00%
      9    11        0.0000    56        1.0000        0.0000    55164  100.00%
     10    12        0.0000   163        1.0000        0.0000    57568  100.00%
Elapsed time = 46.74 sec. (50043.02 ticks, tree = 0.07 MB, solutions = 3)
     12    14        0.0000   132        1.0000        0.0000    60509  100.00%
     13    15        0.0000    54        1.0000        0.0000    62735  100.00%
     14    16        0.0000   201        1.0000        0.0000    83022  100.00%
     15    17        0.0000   183        1.0000        0.0000    95325  100.00%
     16    18        0.0000   224        1.0000        0.0000    96685  100.00%
     18    20        0.0000   444        1.0000        0.0000   101441  100.00%
     20    22        0.0000   222        1.0000        0.0000   105536  100.00%
     23    25        0.0000   198        1.0000        0.0000   107331  100.00%
     25    27        0.0000   199        1.0000        0.0000   111225  100.00%
     27    29        0.0000   173        1.0000        0.0000   112099  100.00%
Elapsed time = 75.64 sec. (80995.52 ticks, tree = 0.36 MB, solutions = 3)
     28    30        0.0000   286        1.0000        0.0000   121272  100.00%
     30    32        0.0000   425        1.0000        0.0000   123501  100.00%
     32    34        0.0000   287        1.0000        0.0000   126195  100.00%
     35    37        0.0000   156        1.0000        0.0000   127954  100.00%
     36    38        0.0000   946        1.0000        0.0000   131393  100.00%
     38    40        0.0000   215        1.0000        0.0000   141010  100.00%
     40    42        0.0000   396        1.0000        0.0000   146417  100.00%
     42    44        0.0000   173        1.0000        0.0000   149233  100.00%
     44    46        0.0000   257        1.0000        0.0000   152072  100.00%
     45    47        0.0000   162        1.0000        0.0000   154145  100.00%
Elapsed time = 99.22 sec. (105849.54 ticks, tree = 0.72 MB, solutions = 3)
     46    48        0.0000   335        1.0000        0.0000   156790  100.00%
     48    50        0.0000   327        1.0000        0.0000   160692  100.00%
     50    52        0.0000   280        1.0000        0.0000   165425  100.00%
     52    54        0.0000   333        1.0000        0.0000   168459  100.00%
     54    56        0.0000   348        1.0000        0.0000   172107  100.00%
     56    58        0.0000   259        1.0000        0.0000   176221  100.00%
     59    61        0.0000   226        1.0000        0.0000   186072  100.00%
     61    63        0.0000   239        1.0000        0.0000   189436  100.00%
     63    65        0.0000   336        1.0000        0.0000   192823  100.00%
     65    67        0.0000   176        1.0000        0.0000   194993  100.00%
Elapsed time = 134.83 sec. (141857.02 ticks, tree = 1.08 MB, solutions = 3)
     66    68        0.0000   392        1.0000        0.0000   198549  100.00%
     67    69        0.0000   186        1.0000        0.0000   200073  100.00%
     69    71        0.0000   196        1.0000        0.0000   204230  100.00%
     71    73        0.0000   334        1.0000        0.0000   210751  100.00%
     73    75        0.0000   212        1.0000        0.0000   215527  100.00%
     75    77        0.0000   892        1.0000        0.0000   220600  100.00%
     77    79        0.0000   176        1.0000        0.0000   221015  100.00%
     79    81        0.0000   966        1.0000        0.0000   225561  100.00%
     81    83        0.0000   463        1.0000        0.0000   230314  100.00%
     83    85        0.0000   163        1.0000        0.0000   233845  100.00%
Elapsed time = 158.49 sec. (166308.16 ticks, tree = 1.43 MB, solutions = 3)
     85    87        0.0000   441        1.0000        0.0000   237528  100.00%
     86    88        0.0000   363        1.0000        0.0000   242026  100.00%
     88    90        0.0000   145        1.0000        0.0000   244479  100.00%
     89    91        0.0000   250        1.0000        0.0000   249003  100.00%
     90    92        0.0000   150        1.0000        0.0000   251007  100.00%
     91    93        0.0000   245        1.0000        0.0000   261641  100.00%
     92    94        0.0000   151        1.0000        0.0000   262792  100.00%
     93    95        0.0000   257        1.0000        0.0000   265478  100.00%
     95    97        0.0000   251        1.0000        0.0000   267591  100.00%
     96    98        0.0000   280        1.0000        0.0000   269971  100.00%
Elapsed time = 192.82 sec. (202263.32 ticks, tree = 1.61 MB, solutions = 3)
     98   100        0.0000   261        1.0000        0.0000   273125  100.00%
    100   102        0.0000   240        1.0000        0.0000   273982  100.00%
    101   103        0.0000   251        1.0000        0.0000   276042  100.00%
    103   105        0.0000   236        1.0000        0.0000   276595  100.00%
    104   106        0.0000   301        1.0000        0.0000   280225  100.00%
    106   108        0.0000   249        1.0000        0.0000   281815  100.00%
    108   110        0.0000   316        1.0000        0.0000   284691  100.00%
    110   112        0.0000   251        1.0000        0.0000   285433  100.00%
    112   114        0.0000   236        1.0000        0.0000   286361  100.00%
    113   115        0.0000   419        1.0000        0.0000   288714  100.00%
Elapsed time = 207.55 sec. (217174.49 ticks, tree = 2.00 MB, solutions = 3)
    116   118        0.0000   797        1.0000        0.0000   292459  100.00%
    118   120        0.0000   296        1.0000        0.0000   295369  100.00%
    121   123        0.0000   462        1.0000        0.0000   299208  100.00%
    123   125        0.0000   204        1.0000        0.0000   299905  100.00%
    125   127        0.0000   193        1.0000        0.0000   300714  100.00%
    126   128        0.0000   287        1.0000        0.0000   302353  100.00%
    127   129        0.0000   805        1.0000        0.0000   313919  100.00%
    129   131        0.0000   823        1.0000        0.0000   317903  100.00%
    132   134        0.0000   334        1.0000        0.0000   321793  100.00%
    134   136        0.0000   292        1.0000        0.0000   324546  100.00%
Elapsed time = 228.71 sec. (238667.17 ticks, tree = 2.47 MB, solutions = 3)
    136   138        0.0000   217        1.0000        0.0000   325443  100.00%
    138   140        0.0000   703        1.0000        0.0000   329377  100.00%
    140   142        0.0000   191        1.0000        0.0000   331696  100.00%
    142   144        0.0000   223        1.0000        0.0000   335333  100.00%
    143   145        0.0000   337        1.0000        0.0000   347251  100.00%
    144   146        0.0000   311        1.0000        0.0000   358431  100.00%
    146   148        0.0000   164        1.0000        0.0000   362928  100.00%
    147   149        0.0000   504        1.0000        0.0000   379352  100.00%
    149   151        0.0000   148        1.0000        0.0000   381088  100.00%
    150   152        0.0000   307        1.0000        0.0000   390972  100.00%
Elapsed time = 260.71 sec. (271377.55 ticks, tree = 2.80 MB, solutions = 3)
    152   154        0.0000   141        1.0000        0.0000   393009  100.00%
    153   155        0.0000   432        1.0000        0.0000   401714  100.00%
    154   156        0.0000   145        1.0000        0.0000   403589  100.00%
    155   157        0.0000   283        1.0000        0.0000   413551  100.00%
    157   159        0.0000   252        1.0000        0.0000   430906  100.00%
    159   161        0.0000   166        1.0000        0.0000   441723  100.00%
    160   162        0.0000   147        1.0000        0.0000   443522  100.00%
    162   164        0.0000   297        1.0000        0.0000   458640  100.00%
    163   165        0.0000   143        1.0000        0.0000   468848  100.00%
    164   166        0.0000   321        1.0000        0.0000   478852  100.00%
Elapsed time = 298.67 sec. (310347.41 ticks, tree = 2.85 MB, solutions = 3)
    166   168        0.0000   184        1.0000        0.0000   490671  100.00%
    168   170        0.0000   257        1.0000        0.0000   501529  100.00%
    170   172        0.0000   179        1.0000        0.0000   509501  100.00%
    174   176        0.0000   248        1.0000        0.0000   524155  100.00%
    177   179        0.0000   389        1.0000        0.0000   537530  100.00%
    179   181        0.0000   136        1.0000        0.0000   548334  100.00%
    180   182        0.0000   422        1.0000        0.0000   559476  100.00%
    182   184        0.0000   171        1.0000        0.0000   577625  100.00%
    185   187        0.0000   149        1.0000        0.0000   586444  100.00%
    187   189        0.0000   145        1.0000        0.0000   601253  100.00%
Elapsed time = 353.52 sec. (366012.74 ticks, tree = 2.95 MB, solutions = 3)
    188   190        0.0000   299        1.0000        0.0000   610543  100.00%
    190   192        0.0000   263        1.0000        0.0000   619654  100.00%
    192   194        0.0000   156        1.0000        0.0000   630916  100.00%
    194   196        0.0000   413        1.0000        0.0000   646246  100.00%
    196   198        0.0000   223        1.0000        0.0000   670465  100.00%
    197   199        0.0000   349        1.0000        0.0000   682721  100.00%
    199   201        0.0000   343        1.0000        0.0000   696391  100.00%
    200   202        0.0000   338        1.0000        0.0000   707384  100.00%
    202   204        0.0000   325        1.0000        0.0000   723779  100.00%
    204   206        0.0000   242        1.0000        0.0000   735538  100.00%
Elapsed time = 408.47 sec. (421951.82 ticks, tree = 3.08 MB, solutions = 3)
    205   207        0.0000   256        1.0000        0.0000   747361  100.00%
    209   211        0.0000   246        1.0000        0.0000   756023  100.00%
    216   218        0.0000   249        1.0000        0.0000   763510  100.00%
    218   220        0.0000   391        1.0000        0.0000   777324  100.00%
    220   222        0.0000   305        1.0000        0.0000   785846  100.00%
    222   224        0.0000   382        1.0000        0.0000   797458  100.00%
    226   228       -0.0000   363        1.0000        0.0000   808068  100.00%
    229   231        0.0000   197        1.0000        0.0000   818103  100.00%
    232   234        0.0000   318        1.0000        0.0000   827360  100.00%
    236   238        0.0000   383        1.0000        0.0000   839433  100.00%
Elapsed time = 453.76 sec. (468296.56 ticks, tree = 3.48 MB, solutions = 3)
    240   242        0.0000   262        1.0000        0.0000   848957  100.00%
    244   246       -0.0000   193        1.0000        0.0000   861164  100.00%
    248   250        0.0000   260        1.0000        0.0000   872170  100.00%
    252   254        0.0000   409        1.0000        0.0000   884434  100.00%
    255   257        0.0000   164        1.0000        0.0000   893304  100.00%
    258   260        0.0000   349        1.0000        0.0000   903375  100.00%
    260   262        0.0000   182        1.0000        0.0000   914493  100.00%
    262   264        0.0000   255        1.0000        0.0000   926046  100.00%
    264   266        0.0000   206        1.0000        0.0000   939125  100.00%
    267   269        0.0000   112        1.0000        0.0000   955555  100.00%
Elapsed time = 516.48 sec. (530520.41 ticks, tree = 3.62 MB, solutions = 3)
    269   271        0.0000   332        1.0000        0.0000   973100  100.00%
    270   272       -0.0000   289        1.0000        0.0000   986378  100.00%
    272   274        0.0000   326        1.0000        0.0000  1009414  100.00%
    274   276        0.0000   196        1.0000        0.0000  1030610  100.00%
    277   279        0.0000   204        1.0000        0.0000  1041689  100.00%
    280   282        0.0000   187        1.0000        0.0000  1057876  100.00%
    284   286        0.0000   517        1.0000        0.0000  1076184  100.00%
    290   292        0.0000   600        1.0000        0.0000  1094802  100.00%
    296   298        0.0000   510        1.0000        0.0000  1115745  100.00%
Starting limited solution polishing.
    300   302        0.0000   491        1.0000        0.0000  1125486  100.00%
Elapsed time = 574.52 sec. (587606.39 ticks, tree = 4.33 MB, solutions = 3)
    305   307        0.0000   596        1.0000        0.0000  1148233  100.00%
    311   313        0.0000   499        1.0000        0.0000  1169169  100.00%
    317   319        0.0000   568        1.0000        0.0000  1190693  100.00%
    324   326        0.0000   586        1.0000        0.0000  1202698  100.00%
    330   332       -0.0000   585        1.0000        0.0000  1218594  100.00%

Root node processing (before b&c):
  Real time             =   21.50 sec. (22161.25 ticks)
Sequential b&c:
  Real time             =  578.51 sec. (589305.02 ticks)
                          ------------
Total (root+branch&cut) =  600.01 sec. (611466.27 ticks)
Primal:	1
Dual:	0
Status:	Feasible
Time:	600.03
Sequence:
	21
	11
	12
	6
	23
	1
	22
	9
	13
	5
	12
	9
	20
	1
	24
	5
	12
	9
	21
	0
	23
	7
	12
	9
	21
	0
	23
	7
	12
	11
	13
	5
	16
	7
	5
	18
	5
	20
	3
	20
	5
	17
	5
	14
	9
	12
	5
	18
	5
	21
	0
	20
	11
	12
	7
	9
	13
	5
	23
	1
	20
	11
	12
	5
	19
	5
	14
	9
	20
	19
	20
	5
	18
	5
	15
	9
	20
	1
	23
	7
	12
	9
	21
	0
	20
	7
	16
	5
	20
	3
	21
	6
	16
	5
	20
	1
	21
	9
	12
	6
	21
	3
	12
	5
	23
	1
	21
	6
	12
	9
	1
	7
	10
	7
	5
	5
	14
	5
	23
	0
	21
	11
	12
	5
	23
	1
	20
	9
	14
	6
	16
	5
	7
	9
	6
	5
	9
	7
	5
	11
	5
	7
	9
	5
	14
	9
	20
	1
	23
	7
	13
	9
	20
	1
	23
	7
	12
	9
	21
	0
	20
	11
	12
	7
	23
	0
	21
	5
	18
	5
	20
	7
	16
	7
	5
	16
	5
	22
	3
	20
	5
	16
	8
	20
	1
	23
	5
	14
	9
	21
	0
	20
	7
	16
	7
	6
	16
	13
	20
	1
	23
	5
	14
	10
	20
	1
	23
	7
	13
	9
	20
	1
	23
	8
	12
	9
	20
	1
	22
	9
	12
	5
	21
	1
	23
	5
	13
	11
	20
	1
	23
	6
	14
	5
	18
	5
	20
	3
	20
	6
	18
	5
	20
	3
	20
	7
	16
	5
	20
	3
	21
	6
	12
	11
	21
	1
	23
	5
	12
	11
	21
	0
	23
	5
	14
	7
	13
	9
	20
	1
	23
	16
	12
	9
	21
	1
	20
	5
	13
	11
	12
	5
	16
	7
	21
	2
	20
	5
	20
	7
	21
	0
	20
	9
	14
	12
	20
	2
	20
	7
	18
	5
	20
	2
	21
	16
	16
	5
	12
	11
	7
	13
	9
	12
	1
	23
	5
	12
	11
	12
	6
	16
	5
	21
	1
	23
	5
	12
	9
	8
	12
	9
	20
	1
	22
	12
	12
	5
	18
	6
	7
	16
	5
	21
	2
	21
	5
	16
	7
	20
	1
	23
	5
	12
	9
	21
	0
	23
	7
	12
	11
	20
	0
	9
	21
	1
	23
	5
	13
	18
	15
	5
	16
	5
	21
	4
	20
	16
	21
	7
	20
	3
	20
	20
	18
	5
	7
	7
	9
	7
	16
	7
	5
	14
	1
	14
	10
	12
	12
	23
